32      4       
10      10      10      10      
0       0       0       0       0       1       2       
6       1       1       0       1       1       3       
6       4       4       0       2       2       4       15      
1       6       0       1       2       1       5       
1       5       3       4       0       1       6       
9       0       3       2       4       1       7       
1       4       3       0       5       2       8       17      
5       0       6       5       4       2       9       10      
5       2       5       0       5       1       11      
7       2       6       0       4       2       13      19      
9       3       0       2       1       1       12      
6       0       4       5       2       1       13      
7       5       5       7       0       1       14      
5       3       0       3       4       1       16      
10      0       6       3       4       1       16      
3       0       5       4       4       2       18      22      
10      5       0       4       5       2       20      22      
4       0       3       5       3       1       20      
10      4       4       5       0       2       22      23      
3       4       8       3       0       1       21      
7       4       3       0       6       2       23      27      
2       5       0       4       3       2       24      27      
4       0       5       2       3       1       24      
6       0       3       3       7       1       25      
6       7       0       5       10      1       26      
5       5       1       0       3       1       28      
3       0       5       4       5       1       28      
9       3       2       0       3       1       29      
2       4       2       9       0       1       30      
4       0       6       2       6       1       31      
7       4       3       6       0       1       32      
0       0       0       0       0       0       
